qe/outputs/qe/qe_queries_wdomain/T=5,eliminate=[I_0,I_1,I_2,I_3,I_4,L_2,L_3,C,B].smt2
; benchmark generated from python API
(set-info :status unknown)
(declare-fun L_1 () Real)
(declare-fun S_2 () Real)
(declare-fun A_2 () Real)
(declare-fun S_3 () Real)
(declare-fun S_4 () Real)
(declare-fun S_1 () Real)
(declare-fun L_4 () Real)
(declare-fun A_4 () Real)
(declare-fun A_3 () Real)
(declare-fun A_1 () Real)
(declare-fun S_0 () Real)
(declare-fun L_0 () Real)
(declare-fun A_0 () Real)
(assert
 (let ((?x1470 (* (- 4.0) A_1)))
 (let ((?x1810 (* 4.0 L_1)))
 (let ((?x784 (* (- 1.0) L_4)))
 (let ((?x1432 (* (- 3.0) L_0)))
 (let ((?x1762 (* 3.0 A_0)))
 (let ((?x6221 (+ ?x1762 ?x1432 A_4 ?x784 ?x1810 ?x1470)))
 (let (($x249126 (not (<= 0.0 ?x6221))))
 (let ((?x786 (* (- 1.0) L_0)))
 (let ((?x795 (* (- 1.0) L_1)))
 (let (($x719 (= ?x795 ?x786)))
 (let (($x691 (not (<= 0.0 (+ (* (- 1.0) A_0) S_0 L_1)))))
 (let (($x254834 (<= (+ A_2 A_0 (* (- 1.0) S_1) ?x795 (* (- 1.0) A_3)) (- 5.0))))
 (let ((?x848 (* (- 1.0) A_4)))
 (let ((?x1439 (* (- 1.0) S_1)))
 (let ((?x1828 (* (- 2.0) L_1)))
 (let (($x248444 (<= (+ ?x1828 A_1 ?x1439 ?x848 L_4 A_0) (- 15.0))))
 (let (($x244618 (<= (+ (* 2.0 A_0) ?x786 ?x1439 L_4 ?x795 (* (- 1.0) A_3)) (- 15.0))))
 (let (($x240833 (<= (+ (* 2.0 A_0) ?x786 ?x1439 ?x848 L_4 ?x795) (- 20.0))))
 (let (($x238478 (<= (+ ?x1828 A_1 L_4 ?x1439 A_0 (* (- 1.0) A_3)) (- 10.0))))
 (let (($x236735 (<= (+ A_2 ?x1828 ?x1439 ?x848 L_4 A_0) (- 10.0))))
 (let (($x230327 (<= (+ L_4 (* 2.0 A_0) ?x786 ?x1439 ?x795 (* (- 1.0) A_2)) (- 10.0))))
 (let ((?x1851 (* 3.0 A_3)))
 (let ((?x29542 (* (- 6.0) A_2)))
 (let ((?x5923 (* (- 3.0) S_1)))
 (let ((?x1771 (* 3.0 A_1)))
 (let ((?x1429 (* (- 3.0) L_1)))
 (let (($x109217 (<= (+ ?x1429 ?x1771 ?x5923 ?x1762 ?x29542 ?x1851) 0.0)))
 (let (($x36443 (<= (+ L_4 ?x795) 0.0)))
 (let ((?x798 (* (- 1.0) A_1)))
 (let ((?x1823 (* (- 4.0) L_1)))
 (let ((?x1741 (* 2.0 L_4)))
 (let ((?x1774 (* (- 2.0) A_4)))
 (let ((?x2756 (* (- 2.0) S_1)))
 (let ((?x1424 (* 2.0 A_0)))
 (let (($x7849 (<= (+ ?x1851 ?x1424 ?x2756 ?x1774 ?x1741 ?x1823 ?x798) 0.0)))
 (let ((?x42482 (* (/ 1.0 4.0) L_4)))
 (let ((?x42481 (* (- (/ 1.0 4.0)) A_4)))
 (let ((?x17115 (* (- (/ 1.0 4.0)) L_0)))
 (let ((?x17126 (* (/ 1.0 4.0) A_0)))
 (let ((?x3634 (* (- (/ 1.0 2.0)) L_1)))
 (let ((?x7199 (* (/ 1.0 2.0) L_4)))
 (let ((?x7158 (* (- (/ 1.0 2.0)) A_4)))
 (let ((?x3658 (* (/ 1.0 2.0) A_2)))
 (let (($x242071 (<= (+ ?x3658 ?x7158 ?x7199 ?x3634) (- 5.0))))
 (let (($x239853 (not (<= (- 5.0) (+ L_4 ?x795 A_1 (* (- 1.0) A_2))))))
 (let (($x235518 (not (<= (+ A_3 ?x784 L_1 ?x798) 10.0))))
 (let (($x366617 (or $x235518 $x239853 $x242071 (not (<= (+ A_4 (* (- 1.0) A_3)) 5.0)) (<= (+ ?x17126 ?x17115 ?x42481 ?x42482) (- 5.0)) (not (<= (+ ?x1828 (* 2.0 A_1) ?x1741 ?x1774) (- 30.0))))))
 (let ((?x1818 (* (- 2.0) A_1)))
 (let ((?x1817 (* 2.0 L_1)))
 (let ((?x1752 (* (- 2.0) L_4)))
 (let ((?x1751 (* 2.0 A_4)))
 (let (($x246221 (not (<= (+ ?x1751 ?x1752 ?x1817 ?x1818) 30.0))))
 (let (($x245707 (not (<= (- 10.0) (+ A_3 ?x795 A_1 ?x848 L_4 (* (- 1.0) A_2))))))
 (let (($x238379 (<= (+ ?x1828 (* 2.0 A_1) (* 2.0 L_0) (* (- 2.0) A_0)) 10.0)))
 (let (($x238384 (not $x238379)))
 (let (($x9990 (<= (+ (* (/ 3.0 2.0) A_2) ?x7158 ?x7199 ?x3634 ?x798) 0.0)))
 (let (($x9563 (<= (+ A_2 (* (- 1.0) A_0) L_0 L_4 ?x1828 A_1 (* (- 1.0) A_3)) 0.0)))
 (let (($x4069 (<= (+ A_3 (* (- 1.0) A_0) L_0 ?x848 L_4 ?x1828 A_1) 0.0)))
 (let (($x242409 (not (<= (+ A_2 ?x795 L_0 (* (- 1.0) A_0)) 10.0))))
 (let (($x242061 (not (<= (- 10.0) (+ A_2 ?x795 ?x848 L_4)))))
 (let (($x364199 (or $x36443 (not (<= (+ ?x1774 (* 2.0 A_3)) (- 10.0))) (not (<= (+ (* 2.0 A_2) ?x1818) 10.0)) (not (<= (+ ?x1817 ?x1751 ?x1752 (* (- 2.0) A_3)) 10.0)) $x242061 $x242409)))
 (let (($x239081 (not (<= (+ ?x1817 ?x1752 (* (- 2.0) A_2) (* 2.0 A_3)) 10.0))))
 (let (($x15052 (not (<= (+ (* (- 1.0) A_3) A_0 ?x786 L_1 ?x798 A_4) 0.0))))
 (let (($x243449 (not (<= 0.0 (+ S_1 L_1 ?x798)))))
 (let ((?x816 (* (- 1.0) A_3)))
 (let ((?x1792 (* 2.0 L_0)))
 (let ((?x1311 (* (- 2.0) A_0)))
 (let (($x9204 (<= (+ ?x1311 ?x1792 (* 2.0 S_1) L_4 ?x795 A_1 ?x816) 0.0)))
 (let (($x6222 (<= ?x6221 0.0)))
 (let (($x6186 (not $x6222)))
 (let (($x3458 (<= (+ L_4 (* (- 1.0) A_0) L_0 S_1 ?x795 A_1 (* (- 1.0) A_2)) 0.0)))
 (let ((?x807 (* (- 1.0) A_2)))
 (let ((?x1829 (* 2.0 A_1)))
 (let (($x1831 (<= (+ A_3 ?x1311 ?x1792 S_1 ?x848 L_4 ?x1828 ?x1829 ?x807) 0.0)))
 (let (($x749277 (or $x1831 $x3458 $x6186 $x9204 $x9563 $x9990 (<= (+ ?x1774 ?x1741 ?x1828 ?x798 ?x1851) 0.0) $x36443 $x243449)))
 (let (($x243390 (<= (+ A_2 L_4 A_0 ?x1439 ?x1828 ?x816) (- 5.0))))
 (let (($x241121 (<= (+ A_3 ?x1429 A_1 ?x2756 ?x848 L_4 ?x1424 ?x807) (- 10.0))))
 (let ((?x3656 (* (- (/ 1.0 2.0)) A_2)))
 (let ((?x3626 (* (- (/ 1.0 2.0)) L_0)))
 (let ((?x3687 (* (/ 3.0 2.0) A_0)))
 (let ((?x7213 (* (/ 1.0 2.0) A_3)))
 (let (($x240045 (<= (+ ?x7213 ?x3687 ?x3626 ?x1439 ?x7158 ?x7199 ?x795 ?x3656) (- (/ 15.0 2.0)))))
 (let ((?x3477 (+ L_4 ?x795 A_1 ?x807)))
 (let (($x234617 (<= ?x3477 (- 5.0))))
 (let ((?x1075 (+ A_3 ?x848)))
 (let (($x15666 (<= ?x1075 (- 5.0))))
 (let (($x240195 (not $x15666)))
 (let ((?x239805 (+ A_3 ?x795 ?x848 L_4)))
 (let (($x239806 (<= ?x239805 (- 5.0))))
 (let (($x232070 (<= (+ ?x3656 (* (/ 1.0 2.0) A_0) ?x3626 (* (/ 1.0 2.0) L_1)) (- 5.0))))
 (let (($x51795 (<= (+ (* (- 2.0) A_3) (* 3.0 A_2) ?x795 L_0 (* (- 1.0) A_0)) 0.0)))
 (let (($x241109 (<= (+ L_4 ?x1828 A_1 ?x1439 A_0 ?x807) (- 5.0))))
 (let (($x48815 (<= (+ ?x816 (* 2.0 A_2) ?x798) 0.0)))
 (let ((?x1473 (* (- 2.0) A_2)))
 (let ((?x817 (* (- 1.0) A_0)))
 (let ((?x1821 (* 2.0 A_3)))
 (let ((?x1834 (* (- 3.0) A_1)))
 (let ((?x1339 (* 3.0 L_1)))
 (let ((?x1815 (* (- 2.0) L_0)))
 (let ((?x1845 (+ ?x816 ?x1424 ?x1815 A_4 ?x784 ?x1339 ?x1834 A_2)))
 (let (($x238249 (not (<= 0.0 ?x1845))))
 (let (($x372549 (or $x6186 $x9204 $x51795 $x238249 (not (<= 0.0 (+ ?x1821 ?x1828 ?x1829 ?x848 L_4 L_0 ?x817 ?x1473))) $x243449)))
 (let (($x234371 (<= (+ ?x1424 ?x1815 ?x1817 ?x1818) (- 10.0))))
 (let (($x243045 (<= (+ ?x3634 (* (/ 1.0 2.0) A_1) (* (- (/ 1.0 2.0)) S_4)) (- 5.0))))
 (let (($x18863 (<= (+ A_3 (* (- 2.0) S_4) ?x795 A_1 A_4 ?x784 ?x807) 0.0)))
 (let (($x9572 (<= (+ (* 2.0 A_2) (* (- 1.0) S_4) ?x795 ?x798) 0.0)))
 (let (($x2093 (<= (+ A_3 (* (- 1.0) S_4) ?x795) 0.0)))
 (let (($x4090 (<= (+ (* (/ 1.0 2.0) A_0) (* (/ 1.0 2.0) S_3) ?x3626 L_1 ?x798) 0.0)))
 (let (($x3659 (<= (+ A_2 (* (- 1.0) S_3) ?x795) 0.0)))
 (let (($x361282 (or $x719 $x3659 (<= (+ ?x795 ?x1829 (* (- 3.0) S_3) S_0 ?x784 ?x817 A_4) 0.0) $x4090 $x249126)))
 (let (($x11556 (<= (+ L_1 ?x798 (* (- 1.0) S_4) (* 2.0 S_2)) 0.0)))
 (let (($x765943 (or $x2093 $x11556 (<= (+ ?x3687 (* (- (/ 3.0 2.0)) L_0) (* (/ 3.0 2.0) S_2) ?x1339 ?x1834) 0.0) $x18863)))
 (let (($x239950 (<= (+ A_3 ?x807) 5.0)))
 (let ((?x1081 (+ A_1 ?x807)))
 (let (($x9663 (<= ?x1081 (- 5.0))))
 (let (($x242898 (not (<= 0.0 (+ L_4 S_3 ?x816)))))
 (let (($x32243 (not (<= (+ A_2 A_4 ?x784 (* (- 2.0) S_3) ?x795) 0.0))))
 (let (($x18708 (<= (+ (* (/ 1.0 2.0) L_1) (* (/ 1.0 2.0) A_1) (* (/ 1.0 2.0) S_3) ?x807) 0.0)))
 (let ((?x2333 (* (- (/ 1.0 3.0)) L_0)))
 (let ((?x2167 (* (/ 1.0 3.0) A_0)))
 (let ((?x35634 (* (/ 1.0 3.0) L_4)))
 (let ((?x31999 (* (- (/ 4.0 3.0)) A_3)))
 (let (($x38015 (not (<= (+ ?x31999 A_4 ?x35634 ?x2167 ?x2333) 0.0))))
 (let (($x2785 (<= (+ ?x1821 ?x1752 (* 4.0 A_0) (* (- 4.0) L_0) (* (- 6.0) S_1)) 0.0)))
 (let (($x2293 (not $x2785)))
 (let (($x1777 (not (<= (+ A_0 ?x786 ?x784 ?x1817 ?x1818 A_2) 0.0))))
 (let (($x6208 (<= (+ ?x1774 ?x784 L_1 ?x798 ?x1851) 0.0)))
 (let (($x6175 (not $x6208)))
 (let (($x9259 (<= (+ A_0 ?x786 ?x784 ?x1817 ?x798 ?x807 A_3) 0.0)))
 (let (($x9190 (not $x9259)))
 (let (($x3644 (not (<= (+ ?x3658 (* (/ 1.0 2.0) A_0) ?x3626 (* (/ 1.0 2.0) L_1) ?x798) 0.0))))
 (let ((?x1598 (* (- 4.0) S_1)))
 (let ((?x2783 (* (- 4.0) L_0)))
 (let ((?x2782 (* 4.0 A_0)))
 (let (($x6081 (not (<= (+ ?x2782 ?x2783 ?x1598 ?x1751 ?x1752 ?x1817 ?x1473) 0.0))))
 (let (($x755217 (or (not (<= (+ ?x816 A_0 ?x786 A_4 ?x784 ?x1817 ?x798) 0.0)) $x3644 $x6081 $x9563 $x36443 $x243449)))
 (let ((?x42444 (* (- (/ 1.0 4.0)) L_4)))
 (let ((?x42442 (* (/ 1.0 4.0) A_4)))
 (let ((?x17144 (* (- (/ 3.0 4.0)) L_0)))
 (let ((?x17156 (* (/ 3.0 4.0) A_0)))
 (let ((?x42494 (+ ?x17156 ?x17144 ?x42442 ?x42444 L_1 ?x798)))
 (let (($x245558 (<= 0.0 ?x42494)))
 (let (($x1763 (not (<= ?x1845 0.0))))
 (let ((?x3686 (* (- (/ 3.0 2.0)) A_2)))
 (let ((?x7176 (* (- (/ 3.0 2.0)) L_4)))
 (let ((?x7196 (* (/ 3.0 2.0) A_4)))
 (let ((?x3688 (* (- (/ 3.0 2.0)) L_0)))
 (let ((?x4854 (* (- 3.0) S_4)))
 (let ((?x7197 (* (/ 3.0 2.0) A_3)))
 (let (($x238851 (<= (+ (* (- (/ 1.0 3.0)) S_4) ?x2167 ?x2333) (- 5.0))))
 (let (($x2573 (<= (+ (* (/ 1.0 3.0) S_4) (* (/ 2.0 3.0) A_0) (* (- (/ 2.0 3.0)) L_0) L_1 ?x798) 0.0)))
 (let (($x284893 (or (not $x2573) $x2093 $x9572 $x18863 $x238851 (<= (+ ?x7197 ?x4854 ?x3687 ?x3688 ?x7196 ?x7176 ?x3686) (- (/ 15.0 2.0))))))
 (let (($x238795 (not (<= 0.0 (+ S_4 ?x848 L_4)))))
 (let ((?x1822 (* (- 3.0) A_0)))
 (let ((?x1442 (* 3.0 L_0)))
 (let ((?x1801 (* (- 1.0) S_4)))
 (let ((?x1450 (* 4.0 A_1)))
 (let (($x22461 (not (<= (+ ?x1823 ?x1450 ?x1801 ?x1442 ?x1822) 0.0))))
 (let (($x15049 (not (<= (+ A_3 ?x784 L_1 ?x798 A_2 ?x848) 0.0))))
 (let (($x293369 (or (not (<= (+ A_3 L_4 ?x795 A_1 ?x1473) 0.0)) $x15049 $x22461 $x36443 $x238795)))
 (let (($x242037 (not (<= 0.0 (+ ?x3658 (* (/ 1.0 2.0) A_4) ?x7199 ?x3634 ?x816)))))
 (let (($x3485 (<= (+ ?x816 A_4 L_4 ?x795 A_1 ?x807) 0.0)))
 (let (($x241918 (not (<= 0.0 (+ ?x3634 (* (/ 1.0 2.0) A_1) (* (/ 1.0 2.0) S_3) L_4 ?x807)))))
 (let ((?x23465 (* (/ 3.0 2.0) S_3)))
 (let ((?x23512 (* (- (/ 1.0 2.0)) A_1)))
 (let ((?x3668 (* (/ 1.0 2.0) L_1)))
 (let ((?x23534 (+ ?x3668 ?x23512 ?x23465 ?x848 L_4)))
 (let (($x241159 (not (<= 0.0 ?x23534))))
 (let (($x239948 (not $x239950)))
 (let (($x235932 (<= (+ A_3 A_0 ?x1439 ?x848 L_4 ?x1828) (- 5.0))))
 (let ((?x3615 (* (/ 1.0 2.0) A_0)))
 (let ((?x3677 (+ ?x3658 ?x3615 ?x3626 ?x3668 ?x798)))
 (let (($x225125 (<= 0.0 ?x3677)))
 (let (($x95092 (<= (+ ?x1424 ?x786 ?x1439 L_4 ?x795 (* (- 4.0) A_3) (* 3.0 A_4)) 0.0)))
 (let ((?x2533 (* (/ 2.0 3.0) S_4)))
 (let ((?x26779 (* (/ 1.0 3.0) A_1)))
 (let ((?x26800 (* (- (/ 4.0 3.0)) L_1)))
 (let (($x46425 (<= (+ ?x26800 ?x26779 ?x2533 ?x1439 L_4 A_0 ?x816) 0.0)))
 (let (($x28933 (<= (+ (* (/ 3.0 4.0) S_4) (* (/ 5.0 4.0) A_0) ?x17115 ?x1439 L_4 ?x795 ?x816) 0.0)))
 (let (($x28568 (<= (+ (* (/ 1.0 2.0) S_4) ?x3687 ?x3626 ?x1439 L_4 ?x795 ?x807) 0.0)))
 (let (($x24407 (<= (+ A_3 L_4 ?x1828 A_1 ?x1439 A_0 ?x1473) 0.0)))
 (let (($x4861 (<= (+ S_4 A_0 ?x1439 ?x848 L_4 ?x795) 0.0)))
 (let (($x4792 (<= (+ ?x3658 (* (/ 1.0 2.0) S_4) (* (- (/ 3.0 2.0)) L_1) ?x1439 L_4 A_0 ?x816) 0.0)))
 (let ((?x21172 (* (/ 2.0 3.0) S_3)))
 (let ((?x2544 (* (/ 2.0 3.0) L_0)))
 (let ((?x2543 (* (- (/ 2.0 3.0)) A_0)))
 (let (($x25622 (<= (+ ?x2543 ?x2544 ?x21172 ?x1741 ?x1828 ?x1829 ?x1473) 0.0)))
 (let ((?x1900 (* (- 3.0) A_3)))
 (let ((?x1428 (* 3.0 L_4)))
 (let ((?x5936 (* 2.0 S_3)))
 (let (($x1814 (<= (+ ?x817 S_3 L_0 ?x848 L_4 ?x795 A_1) 0.0)))
 (let (($x745756 (or $x1814 (<= (+ ?x1311 ?x1792 ?x5936 ?x1428 ?x1429 ?x1771 ?x1900) 0.0) $x9563 $x25622 $x36443)))
 (let (($x23421 (<= (+ S_2 L_4 ?x807) 0.0)))
 (let (($x11523 (<= (+ ?x1817 ?x1818 (* 2.0 S_2) (* 2.0 A_2) (* (- 2.0) A_3)) 0.0)))
 (let (($x1825 (<= (+ ?x1821 ?x1822 ?x1442 S_2 ?x1774 ?x1741 ?x1823 ?x1450 ?x1473) 0.0)))
 (let (($x9211 (<= (+ ?x817 L_0 S_2 L_4 ?x795 A_1 ?x816) 0.0)))
 (let (($x6179 (<= (+ ?x1822 ?x1442 (* 3.0 S_2) ?x1774 ?x1741 ?x1828 ?x1829) 0.0)))
 (let (($x3454 (<= (+ ?x1741 ?x817 L_0 S_2 ?x1828 ?x1829 ?x1473) 0.0)))
 (let ((?x1854 (* (- 3.0) A_2)))
 (let ((?x1852 (* (- 5.0) L_1)))
 (let (($x1856 (<= (+ ?x1851 ?x1822 ?x1442 ?x1774 ?x1741 ?x1852 (* 5.0 A_1) ?x1854) 0.0)))
 (let (($x241808 (not (<= 0.0 (+ A_3 L_1 ?x798 (* 2.0 S_2) ?x848 L_4 ?x807)))))
 (let (($x239961 (not (<= 0.0 (+ L_4 S_2 ?x807)))))
 (let (($x239656 (not (<= 0.0 (+ L_1 ?x798 L_4 (* 2.0 S_2) ?x816)))))
 (let (($x748999 (or (not (<= (+ ?x1823 ?x1450 ?x1751 ?x1752 (* (- 6.0) S_2)) 0.0)) $x36443 $x239656 $x239961 $x241808)))
 (let ((?x4887 (* 4.0 L_4)))
 (let ((?x4880 (* (- 4.0) A_4)))
 (let ((?x5819 (+ (* (- 12.0) A_0) (* 12.0 L_0) (* 12.0 S_1) ?x4880 ?x4887 ?x1823 ?x1450)))
 (let (($x333886 (or $x1831 $x3458 $x4069 (<= ?x5819 0.0) $x9204 $x9563 (<= (+ A_2 ?x1311 ?x1792 S_1 ?x848 L_4 ?x1828 A_1) 0.0) $x36443)))
 (let (($x29807 (<= (+ L_4 S_3 ?x795 ?x1439 A_0 ?x816) 0.0)))
 (let (($x25500 (<= (+ (* (/ 4.0 3.0) A_0) ?x2333 ?x21172 ?x1439 L_4 ?x795 ?x807) 0.0)))
 (let (($x341511 (or $x24407 $x25500 $x29807 $x36443 (<= (+ ?x807 ?x5936 ?x1439 ?x848 L_4 A_0) 0.0))))
 (let (($x24376 (<= (+ L_4 ?x795 S_2 ?x1439 A_0 ?x807) 0.0)))
 (let (($x18333 (<= (+ L_0 (* 2.0 S_2) ?x1439 ?x848 L_4 ?x795) 0.0)))
 (let ((?x17138 (* (/ 3.0 4.0) S_2)))
 (let ((?x17179 (* (/ 1.0 4.0) L_0)))
 (let (($x17181 (<= (+ ?x7213 ?x17156 ?x17179 ?x17138 ?x1439 ?x7158 ?x7199 ?x795 ?x3656) 0.0)))
 (let (($x7814 (<= (+ ?x1821 A_0 L_0 S_2 ?x2756 ?x1774 ?x1741 ?x1823) 0.0)))
 (let ((?x3667 (* (/ 1.0 2.0) L_0)))
 (let ((?x3614 (* (- (/ 1.0 2.0)) A_0)))
 (let ((?x5627 (* (/ 1.0 2.0) S_4)))
 (let (($x26034 (<= (+ ?x5627 ?x3614 ?x3667 ?x1741 ?x1828 ?x1829 ?x1473) 0.0)))
 (let (($x19122 (<= (+ A_2 S_4 ?x1311 ?x1792 ?x1774 ?x1741 ?x1429 ?x1829) 0.0)))
 (let (($x9246 (<= (+ S_4 ?x817 L_0 ?x1741 ?x1828 ?x1829 (* (- 2.0) A_3)) 0.0)))
 (let (($x4889 (<= (+ (* 3.0 S_4) ?x1822 ?x1442 ?x4880 ?x4887 ?x1823 ?x1450) 0.0)))
 (let (($x1833 (<= (+ A_3 ?x817 L_0 ?x848 ?x795 A_1) 0.0)))
 (let (($x743737 (or $x1833 $x4889 $x9246 (<= (+ A_2 ?x817 L_0 ?x795 A_1 ?x816) 0.0) $x19122 $x26034 $x36443)))
 (let (($x23778 (<= (+ L_1 A_1 ?x4854 (* 2.0 S_0) ?x1751 ?x1752 ?x1311) 0.0)))
 (let (($x21651 (<= (+ (* (- (/ 4.0 3.0)) S_4) ?x2543 ?x2333 S_0 L_1 ?x784 A_4) 0.0)))
 (let (($x18637 (<= (+ L_1 ?x786) 0.0)))
 (let (($x1800 (<= (+ ?x1801 A_0 ?x786 A_4 ?x784 L_1 ?x798) 0.0)))
 (let (($x362879 (or $x1800 $x2093 (<= (+ A_3 ?x4854 ?x786 S_0 ?x1751 ?x1752 L_1 ?x807) 0.0) $x9572 $x18637 $x18863 $x21651 $x23778)))
 (let (($x235744 (<= (+ ?x848 L_4 ?x795 A_1) (- 15.0))))
 (let (($x304752 (or $x4069 $x9663 $x36443 $x235744 $x240195 (<= (+ A_2 ?x817 L_0 ?x848 L_4 ?x1828 A_1) (- 5.0)))))
 (let (($x747558 (or $x4069 $x36443 $x234617 $x235744 (<= (+ A_3 ?x817 L_0 ?x848 L_4 ?x1828 ?x1829 ?x807) (- 5.0)) $x239948)))
 (let (($x23213 (<= (+ L_1 ?x1818 (* 3.0 S_2) ?x1439 ?x848 L_4 A_0) 0.0)))
 (let (($x22891 (<= (+ A_0 S_2 ?x1439 ?x807) 0.0)))
 (let (($x11503 (<= (+ ?x798 L_4 (* 2.0 S_2) ?x1439 A_0 ?x816) 0.0)))
 (let (($x9387 (<= (+ A_3 ?x795 ?x798 S_2 ?x1439 ?x848 L_4 A_0) 0.0)))
 (let (($x10980 (<= (+ A_2 (* (- 2.0) S_4) ?x817 S_0 A_4 ?x784) 0.0)))
 (let ((?x2373 (* (- (/ 2.0 3.0)) L_0)))
 (let ((?x2149 (* (/ 2.0 3.0) A_0)))
 (let ((?x2537 (* (- (/ 2.0 3.0)) S_4)))
 (let (($x2569 (<= (+ ?x2537 ?x2149 ?x2373 A_4 ?x784 L_1 ?x807) 0.0)))
 (let (($x311962 (or $x1831 $x3458 $x4069 (<= (+ ?x1822 ?x1442 (* 4.0 S_1) ?x848 L_4) 0.0) $x9204 $x9563 $x36443 (<= (+ ?x3658 ?x7158 ?x7199 ?x817 L_0 S_1 ?x3634) 0.0))))
 (let (($x18810 (<= (+ A_3 ?x795 ?x798 (* 2.0 S_2) ?x2756 ?x848 L_4 ?x1424 ?x807) 0.0)))
 (let (($x309775 (or $x11503 (<= (+ A_3 ?x795 ?x798 ?x848 L_4 A_2) 0.0) $x18810 $x23213 $x24376 $x36443)))
 (let (($x9247 (<= (+ ?x784 L_1 ?x798 (* 2.0 A_2) ?x816) 0.0)))
 (let (($x258468 (<= (+ (* (- (/ 1.0 2.0)) A_3) ?x7199 ?x3634 (* (/ 1.0 2.0) A_1)) (- 5.0))))
 (let (($x2556 (<= (+ ?x1801 ?x817 ?x784 S_0 L_1 A_3) 0.0)))
 (let (($x2558 (<= (+ (* (- (/ 1.0 3.0)) S_4) (* (- (/ 5.0 3.0)) A_0) ?x2544 S_0 A_1) 0.0)))
 (let (($x15060 (<= (+ ?x816 S_4 ?x1741 ?x795 A_1 ?x807) 0.0)))
 (let (($x1769 (<= (+ A_3 S_4 ?x1311 ?x1792 ?x1774 ?x1741 ?x1429 ?x1771 ?x807) 0.0)))
 (let (($x49330 (<= (+ ?x816 S_4 ?x795 A_1 (* (- 1.0) S_3) L_4) 0.0)))
 (let ((?x1807 (* (- 1.0) S_3)))
 (let ((?x23509 (* (/ 1.0 2.0) A_1)))
 (let ((?x7165 (* (- (/ 1.0 2.0)) A_3)))
 (let (($x41456 (<= (+ ?x7165 S_4 ?x3634 ?x23509 ?x1807 ?x7158 ?x7199 ?x3658) 0.0)))
 (let (($x13335 (<= (+ (* (- 2.0) A_3) (* 2.0 S_4) A_0 ?x1807 ?x786 ?x1741) 0.0)))
 (let ((?x1453 (* 2.0 A_2)))
 (let ((?x2125 (* (- 3.0) S_3)))
 (let ((?x1621 (* 4.0 S_4)))
 (let ((?x1754 (* (- 2.0) A_3)))
 (let (($x298922 (or $x3659 (<= (+ ?x1754 ?x1621 A_0 ?x2125 ?x786 ?x1774 ?x1741 ?x1453) 0.0) $x13335 $x41456 $x49330)))
 (let (($x5169 (<= (+ ?x2149 (* (/ 1.0 3.0) L_0) (* (/ 4.0 3.0) S_3) ?x1439 ?x848 L_4 ?x795) 0.0)))
 (let (($x749017 (or $x5169 (not (<= (+ ?x3634 ?x23512 ?x23465 ?x1439 ?x848 L_4 A_0) 0.0)) $x25500 $x29807 $x36443)))
 (let ((?x1899 (* 3.0 A_2)))
 (let ((?x19520 (* (/ 3.0 4.0) S_4)))
 (let (($x316317 (or $x1769 $x4069 $x4889 $x15060 $x36443 (<= (+ ?x19520 (* (- (/ 3.0 4.0)) A_0) (* (/ 3.0 4.0) L_0) ?x1899 ?x1900) 0.0))))
 (let (($x337351 (or $x4861 $x9247 (<= (+ ?x816 S_4 ?x1828 A_1 ?x1439 ?x1741 A_0 ?x807) 0.0) (<= (+ ?x1754 (* 2.0 S_4) ?x1424 ?x786 ?x1439 ?x1428 ?x795 ?x807) 0.0) $x36443)))
 (let (($x238291 (not (<= 0.0 (+ ?x784 A_0 ?x786 ?x1817 ?x1818 A_2)))))
 (let ((?x2206 (* (/ 1.0 3.0) S_4)))
 (let ((?x26761 (* (/ 2.0 3.0) A_1)))
 (let ((?x26783 (* (- (/ 5.0 3.0)) L_1)))
 (let (($x26785 (<= (+ ?x26783 ?x26761 ?x2206 ?x1439 L_4 A_0 ?x807) 0.0)))
 (let (($x19517 (<= (+ (* (/ 1.0 4.0) S_4) ?x17156 ?x17144 L_1 ?x798) 0.0)))
 (let (($x29546 (<= (+ ?x816 (* 3.0 S_3) L_0 ?x1439 ?x1774 ?x1741 ?x795 A_2) 0.0)))
 (let (($x2305 (<= (+ ?x816 L_4 S_3) 0.0)))
 (let (($x20784 (not (<= (+ A_0 ?x786 A_4 ?x784 ?x1807 L_1 ?x798) 0.0))))
 (let (($x9224 (<= (+ (* (- 2.0) S_4) ?x1424 ?x1815 (* (- 3.0) L_4) ?x1339 ?x1834 ?x1851) 0.0)))
 (let (($x9949 (not (<= (+ ?x3658 ?x7158 ?x7199 (* (- (/ 3.0 2.0)) L_1) A_1 L_0 ?x817) 0.0))))
 (let (($x9570 (<= (+ ?x1899 (* (- 2.0) S_4) ?x817 L_0 ?x1429) 0.0)))
 (let (($x2546 (<= (+ (* (- (/ 1.0 3.0)) S_4) ?x2543 ?x2544 S_1) 0.0)))
 (let (($x737264 (or $x2093 $x2546 (<= (+ ?x7197 ?x4854 (* (/ 3.0 2.0) S_1) ?x7196 ?x7176 ?x3686) 0.0) $x9570)))
 (let (($x756681 (or (not (<= (+ A_2 ?x1807 ?x1828 A_1 L_0 ?x817) 0.0)) $x32243 $x36443 $x225125 $x242898)))
 (let (($x2541 (<= (+ ?x2537 (* (- (/ 1.0 3.0)) A_0) (* (/ 1.0 3.0) L_0) S_2) 0.0)))
 (let (($x307906 (or $x2093 $x2541 (<= (+ ?x7197 ?x4854 ?x17156 ?x17144 ?x17138 ?x7196 ?x7176 ?x3686) 0.0) $x18863)))
 (let (($x266278 (or $x719 $x3659 (<= (+ A_1 ?x784 (* (- 2.0) S_3) S_0 ?x817 A_3) 0.0) (<= (+ A_0 ?x786 ?x1807 ?x784 L_1 ?x798 A_3) 0.0) (<= (+ ?x3614 ?x3626 ?x784 (* (- (/ 3.0 2.0)) S_3) S_0 L_1 A_3) 0.0))))
 (let (($x23466 (<= (+ ?x3634 ?x23512 ?x23465 ?x1439 ?x848 L_4 A_0) 0.0)))
 (let (($x18995 (<= (+ (* (- (/ 3.0 2.0)) L_1) ?x23509 (* (/ 1.0 2.0) S_3) ?x1439 L_4 A_0 ?x807) 0.0)))
 (let (($x5699 (not (<= (+ ?x1801 A_0 ?x786 (* (- 4.0) A_2) (* 4.0 A_3)) 0.0))))
 (let (($x2044 (<= (+ ?x795 A_1 (* (- 1.0) S_2)) 0.0)))
 (let (($x262896 (or $x719 (<= (+ ?x1424 ?x1432 (* (- 4.0) S_2) S_0 A_4 ?x784 L_1) 0.0) $x2044 (<= (+ A_4 ?x784 ?x1762 ?x1432 (* (- 3.0) S_2) L_1 ?x798) 0.0))))
 (let (($x426309 (or $x24376 (<= (+ ?x1821 ?x817 L_0 S_2 ?x1774) 0.0) $x36443 (<= (+ ?x3615 ?x3667 (* (/ 3.0 2.0) S_2) ?x1439 L_4 ?x795 ?x816) 0.0))))
 (let (($x13242 (<= (+ ?x1754 (* 2.0 S_4) ?x1424 ?x1815 (* (- 2.0) S_2) ?x1741) 0.0)))
 (let ((?x2344 (* (- 3.0) S_2)))
 (let ((?x6649 (* 2.0 S_4)))
 (let (($x413891 (or $x2044 (<= (+ ?x816 ?x6649 ?x1424 ?x1815 ?x2344 ?x848 L_4 A_2) 0.0) $x13242)))
 (let (($x19131 (<= (+ ?x807 ?x1424 (* (- 1.0) S_2) ?x1815 A_4 ?x784 ?x1817 ?x798) 0.0)))
 (let (($x10998 (<= (+ ?x807 A_0 (* (- 2.0) S_2) ?x1815 S_0 A_4 ?x784 ?x1817) 0.0)))
 (let (($x257727 (or $x719 $x2044 $x9259 (<= (+ ?x807 (* (- 1.0) S_2) ?x786 S_0 ?x1817 ?x784 A_3) 0.0))))
 (let (($x26190 (<= (+ ?x1801 A_0 ?x786 (* (- 3.0) L_4) ?x1339 ?x1834 ?x1899) 0.0)))
 (let (($x18574 (<= (+ (* (/ 3.0 2.0) L_1) ?x23512 (* (- (/ 1.0 2.0)) S_4) S_0 ?x784 ?x817 A_2) 0.0)))
 (let (($x2745 (<= (+ A_3 ?x1801 ?x784) 0.0)))
 (let (($x365502 (or $x1769 $x4069 $x4889 $x9246 $x26034 $x36443 (<= 0.0 (+ ?x3615 ?x3626 (* (/ 1.0 2.0) A_4) ?x7199 ?x807)))))
 (let ((?x7218 (* (- (/ 1.0 2.0)) L_4)))
 (let ((?x7217 (* (/ 1.0 2.0) A_4)))
 (let ((?x1469 (* 5.0 L_1)))
 (let ((?x7450 (* 2.0 S_0)))
 (let (($x254399 (or $x719 $x3659 (<= (+ ?x816 ?x1815 ?x7450 A_4 ?x784 ?x1469 ?x1834 A_2) 0.0) (<= (+ ?x7165 ?x3668 ?x23509 ?x1807 S_0 ?x7217 ?x7218 ?x817 ?x3658) 0.0) $x238249)))
 (let (($x254393 (or $x719 $x2044 (<= (+ ?x1424 ?x1815 (* (- 2.0) S_2) ?x784 L_1 ?x798 A_3) 0.0) (<= (+ A_0 ?x1815 ?x2344 S_0 L_1 ?x784 A_3) 0.0))))
 (let (($x381570 (or $x2093 (<= (+ ?x3656 ?x3614 ?x3667 S_1 ?x3668) 0.0) (<= (+ A_2 ?x1801 ?x817 L_0 S_1 ?x795) 0.0))))
 (let (($x250631 (or $x719 (<= (+ ?x786 (* (- 2.0) S_3) S_0 A_4 ?x784 L_1) 0.0) $x3659 (not $x4090) (<= (+ A_4 ?x784 ?x3687 (* (- (/ 3.0 2.0)) S_3) ?x3688 L_1 ?x798) 0.0))))
 (let (($x2554 (<= (+ ?x2537 (* (- (/ 4.0 3.0)) A_0) (* (/ 1.0 3.0) L_0) ?x784 S_0 L_1 A_2) 0.0)))
 (let (($x65833 (or $x3659 (<= (+ ?x816 S_4 ?x3615 (* (- (/ 1.0 2.0)) S_3) ?x3626 L_1) 0.0) (<= (+ ?x816 S_4 A_1 ?x1807) 0.0))))
 (let (($x29497 (<= (+ ?x1900 (* 6.0 S_3) ?x2344 (* (- 3.0) A_4) ?x1428 ?x1899) 0.0)))
 (let (($x4012 (<= (+ ?x816 ?x3614 (* (- (/ 1.0 2.0)) S_3) ?x3626 S_0 A_4 ?x784 ?x1817) 0.0)))
 (let (($x1812 (<= (+ ?x1754 ?x1762 ?x1807 ?x1432 ?x1751 ?x1752 ?x1810 ?x1470 ?x1453) 0.0)))
 (let (($x245221 (or $x719 $x1812 $x3659 $x4012 (<= (+ ?x816 L_1 A_1 ?x1807 S_0 ?x784 ?x817 A_4) 0.0))))
 (let (($x244334 (or $x719 $x2044 (<= (+ ?x784 ?x786 (* (- 2.0) S_2) S_0 L_1 A_2) 0.0) (<= (+ ?x784 A_0 ?x786 (* (- 1.0) S_2) L_1 ?x798 A_2) 0.0))))
 (let (($x7470 (<= (+ ?x1754 ?x1822 ?x2125 ?x786 (* 4.0 S_0) ?x1751 ?x1752 ?x1810 ?x1453) 0.0)))
 (let (($x2142 (<= (+ ?x1828 ?x1829 ?x1807 L_0 ?x817) 0.0)))
 (let (($x35103 (or $x2044 (<= (+ ?x807 S_3 A_0 (* (- 1.0) S_2) ?x786 L_1) 0.0))))
 (let (($x1842 (<= (+ ?x816 A_0 ?x786 A_4 ?x784 ?x1817 ?x798) 0.0)))
 (let (($x18928 (or $x2044 (<= (+ ?x807 S_4 ?x1424 (* (- 2.0) S_2) ?x1815 L_1) 0.0))))
 (let (($x239671 (or $x719 (<= (+ ?x784 L_1 ?x1807 S_0 ?x817 A_2) 0.0) (<= (+ ?x3615 (* (- (/ 1.0 2.0)) S_3) ?x3626 ?x784 L_1 ?x798 A_2) 0.0))))
 (let (($x1820 (<= (+ ?x816 ?x1424 ?x1815 (* (- 1.0) S_2) A_4 ?x784 ?x1817 ?x1818 A_2) 0.0)))
 (let (($x238789 (or $x719 $x1820 $x2044 (<= (+ ?x816 ?x1815 ?x2344 ?x7450 A_4 ?x784 ?x1817 A_2) 0.0))))
 (let ((?x1433 (* (- 4.0) S_2)))
 (let ((?x5150 (* (/ 4.0 3.0) S_3)))
 (let ((?x5121 (* (- (/ 8.0 3.0)) L_0)))
 (let ((?x5133 (* (/ 8.0 3.0) A_0)))
 (let (($x4531 (or $x2044 (<= (+ ?x816 S_4 A_0 (* (- 1.0) S_2) ?x786 L_1) 0.0))))
 (let (($x238694 (or $x719 $x1842 $x2044 (<= (+ ?x816 (* (- 1.0) S_2) ?x786 S_0 A_4 ?x784 ?x1817) 0.0))))
 (let (($x236385 (not (<= (+ ?x1829 ?x1473) (- 10.0)))))
 (let (($x677 (<= (+ ?x795 A_1 ?x1807) (- 5.0))))
 (let (($x41 (>= A_1 A_0)))
 (let (($x42 (>= A_2 A_1)))
 (let (($x43 (>= A_3 A_2)))
 (let (($x44 (>= A_4 A_3)))
 (and (<= ?x795 ?x786) $x44 $x43 $x42 $x41 (<= ?x784 ?x795) (or (<= (+ A_0 ?x786 (* (- 1.0) S_2)) (- 5.0)) $x2044) (or $x677 (not $x2142) $x236385) $x238694 $x4531 (or $x2044 (<= (+ S_4 ?x1762 ?x1432 ?x1433) 0.0)) (or $x2044 (<= (+ ?x5133 ?x5121 ?x5150 ?x1433) 0.0)) $x238789 (or $x677 $x3659 $x232070) (or $x3659 (<= (+ ?x3614 (* (- (/ 1.0 2.0)) S_3) ?x3667 S_1) 0.0)) $x239671 (or $x2142 $x3659 (<= (+ ?x3615 (* (- (/ 1.0 2.0)) S_3) ?x3626) (- 5.0))) $x18928 (or $x2142 $x3659 (<= (+ S_4 A_0 ?x786 (* (- 2.0) S_3)) 0.0)) (or $x691 $x719 $x238384) (or $x691 $x719 $x238249) (or $x719 $x1842 $x2142 $x3659 $x4012) $x35103 (or $x691 $x719 $x1842) (or $x719 $x1812 $x2142 $x3659 $x7470) $x244334 $x245221 (or $x3659 (<= (+ ?x1828 ?x1829 S_4 ?x2125) 0.0) $x19517) (or $x2745 $x11556) (or $x2541 $x2745) (or $x2305 $x29497) $x65833 (or $x2305 (<= (+ ?x816 L_1 ?x798 ?x5936 ?x848 L_4 A_2) 0.0)) (or $x719 $x2554 $x2745 $x26190) (or $x691 $x719 $x238291) (or $x691 $x719 $x243449) $x250631 $x381570 (or $x2305 $x241159) (or $x719 $x2556 $x9259) $x254393 $x254399 (or $x691 $x719 (not (<= 0.0 (+ ?x1424 ?x1815 ?x784 ?x1339 ?x1834 A_3)))) (or $x2745 (not (<= (+ ?x3634 ?x23509 ?x5627 L_4 ?x807) 0.0)) $x238851 $x243045) $x365502 (or $x719 $x2745 $x18574 $x26190) (or $x691 $x719 $x6222) $x257727 (or $x691 $x719 (not $x9563) $x242898) (or $x719 $x2044 $x10998 $x19131) $x413891 $x426309 $x262896 (or $x3659 $x19517 $x41456 $x49330) (or $x4861 $x6175 $x9247 $x26785 $x28568 $x36443) (or $x4861 $x5699 $x26785 $x28568 $x36443) (or $x18995 $x23466 $x25500 $x29807 $x36443) (or $x691 $x719 (not $x4069) $x238795) (or $x2546 $x2745 $x9570) (or $x2745 $x9570 $x238851 $x243045) (or $x1800 $x2093 $x2569 $x10980 $x18637 $x21651 $x225125) (or $x691 $x719 $x9259) (or $x1814 $x25622 $x36443 $x242898) $x266278 (or $x1833 $x4889 $x9246 $x26034 $x36443 $x51795) (or $x232070 $x239806 $x240195 $x242061 $x245707 $x246221) $x307906 $x756681 (or (<= ?x23534 0.0) $x36443 $x241918 $x242898) $x737264 (or $x20784 $x25622 $x238249 $x245558) (or (= ?x784 ?x795) $x6208 $x9572 $x232070 $x239853 $x243045) (or $x9387 $x17181 $x18333 $x24376 $x36443 $x95092) (or $x691 $x719 $x9949) (or $x719 $x2558 $x9224) (or $x15666 $x36443 $x51795 $x230327 $x241109 $x258468) (or $x2305 $x20784 $x238249) (or $x2305 $x29546) (or $x36443 $x38015 $x239656 $x239961) (or $x4861 $x9247 $x19517 $x26785 $x36443 $x46425) (or $x15666 $x36443 $x232070 $x235518 $x239081 $x239853) (or $x1763 $x1777 $x9247 $x36443 $x238291 $x243449) (or $x36443 (not (<= (- 5.0) ?x239805)) $x239853 $x239948 $x242409 $x245707) (or $x1814 $x2305) (or $x7814 $x18333 $x22891 $x36443 $x95092) $x337351 (or $x1833 $x3454 $x6179 $x9211 $x36443) (or $x15049 $x36443 $x238249 $x238795 $x245558) (or $x9247 $x15049 $x36443 (<= ?x42494 0.0) $x238795) (or $x9247 $x15049 $x22461 $x36443 $x238795) $x316317 $x749017 $x298922 (or $x1769 $x4069 $x4889 $x9246 $x9563 $x15060 $x19122 $x36443) (or $x719 (not $x2558) $x2556) (or $x15666 $x36443 $x234371 $x234617 $x235518 $x239081) (or $x15666 $x36443 $x48815 $x234371 $x235518 $x239853) (or $x9563 $x15666 $x36443 $x234617 $x258468) (or $x4069 $x6081 $x9190 $x36443 $x225125 $x243449) (or $x1825 $x3454 $x4069 $x6179 $x9247 $x36443) $x309775 $x311962 (or $x25622 $x36443 $x241159 $x242898) (or $x2093 $x2569 $x10980 $x18637 $x18863 $x21651 $x23778 $x249126) (or $x9387 $x11503 $x22891 $x23213 $x36443) $x747558 $x304752 (or $x3454 $x7814 $x17181 $x18333 $x36443 $x95092) (or $x6208 $x36443 $x239656 $x239961) (or (<= (+ ?x5627 ?x3615 ?x3626 L_1 ?x807) 0.0) $x36443 $x225125 $x238795 $x242037) (or $x6208 $x36443 $x230327 $x236735 $x238478 $x240833 $x241109 $x244618 $x248444 $x254834) $x362879 (or $x1856 $x4069 $x6179 $x9211 $x23421) $x743737 (or $x7814 $x17181 $x18333 $x24376 $x36443 $x95092) (or $x15666 $x36443 $x234617 $x235518 $x239081 $x242409) (or $x9563 $x15666 $x36443 $x234617 $x235518 $x238384) $x341511 $x333886 $x748999 (or $x1856 $x3454 $x4069 $x6179 $x9211 $x36443) (or $x9663 $x36443 $x235932 $x239948 $x240833) (or $x1825 $x4069 $x11523 $x23421) $x745756 (or $x4792 $x4861 $x24407 $x28568 $x28933 $x36443 $x46425) (or $x15666 $x36443 $x238384 $x239853 (not (<= (+ ?x1821 ?x1473) 10.0))) (or $x2293 $x3458 $x6208 $x9190 $x36443 $x243449) (or $x2093 (<= (+ A_2 ?x1801 ?x795) (- 5.0)) $x9663 $x238851) (or $x36443 $x95092 $x225125 $x236735 $x239950 $x240833 $x254834) (or $x234617 $x235744 $x239806 $x240195 $x242071 $x245707) (or $x3485 (<= (+ ?x3658 ?x5627 ?x3668 ?x816) 0.0) $x36443 $x238795) (or $x36443 $x230327 $x235932 $x239948 $x240045 $x240833 $x241109 $x241121 $x248444) (or $x36443 $x241159 $x241918 $x242898) (or $x3485 $x6175 $x36443 $x238795 $x242037) $x293369 $x284893 (or $x6208 $x36443 $x234617 $x236735 $x238478 $x240833 $x243390 $x244618 $x248444) (or $x1763 $x3458 $x4069 $x6175 $x36443 $x51795 $x243449 $x245558) (or $x2305 $x32243) $x755217 (or $x3644 $x9190 $x36443 $x38015 $x243449) (or $x3458 $x6175 $x9990 $x36443 $x38015 $x243449) (or $x1777 $x2293 $x36443 $x38015 $x51795 $x243449) (or $x18708 $x32243 $x36443 $x242898) (or $x9663 $x36443 $x232070 $x236735 $x239950 $x254834) $x765943 $x361282 (or $x7849 $x9563 $x36443 $x109217 $x234617 $x236735 $x238478 $x240833 $x244618 $x248444) (or $x2093 $x9572 $x18863 $x234371 $x243045) (or $x4069 $x9563 $x9990 $x36443 $x234371 $x235518 $x239853 $x245707 $x246221) $x372549 (or $x7849 $x36443 $x48815 $x230327 $x238478 $x240045 $x240833 $x241109 $x241121 $x244618 $x248444) (or $x15666 $x36443 $x234617 $x238478 $x243390 $x244618) (or $x15052 $x36443 $x51795 $x235518 $x238384 $x239853) (or $x232070 $x236735 $x239806 $x240195 $x245707 $x246221) (or $x7849 $x36443 $x234617 $x236735 $x238478 $x240045 $x240833 $x241121 $x243390 $x244618 $x248444) $x749277 (or $x15052 $x36443 $x235518 $x238384 $x239081 $x239853) $x364199 (or $x4069 $x9563 $x9990 $x36443 $x235518 $x238384 $x239853 $x245707 $x246221) $x366617 (or $x7849 $x36443 $x109217 $x230327 $x236735 $x238478 $x240833 $x244618 $x248444 $x254834) (or $x691 $x719 $x249126) (<= (+ ?x1439 S_0) 0.0) (<= (+ ?x817 L_0 S_0) 0.0) (<= (+ L_1 ?x798 S_1) 0.0) (<= (+ ?x816 L_1 S_3) 0.0) (<= (+ S_4 ?x848 L_4) 0.0) (<= (+ (* (- 1.0) S_2) S_1) 0.0) (<= (+ ?x1801 S_3) 0.0) (<= (+ ?x1807 S_2) 0.0) (<= (+ ?x807 S_2 L_1) 0.0)))))))))))))))))))))))))))))))))))))))))))))))))))))))))))))))))))))))))))))))))))))))))))))))))))))))))))))))))))))))))))))))))))))))))))))))))))))))))))))))))))))))))))))))))))))))))))))))))))))))))))))))))))))))))))))))))))))))))))))))))))))))))))))))))))))))))))))))))))))))))))))))))))))))))))))))))))))))))))))))))))))))))))))))))))))))
(check-sat)
